objective value:                                13089
t_x_1                                               1 	(obj:66)
t_x_2                                               1 	(obj:10)
t_x_3                                               1 	(obj:19)
t_x_5                                               1 	(obj:33)
t_x_6                                               1 	(obj:92)
t_x_7                                               1 	(obj:7)
t_x_13                                              1 	(obj:43)
t_x_15                                              1 	(obj:25)
t_x_21                                              1 	(obj:7)
t_x_24                                              1 	(obj:29)
t_x_26                                              1 	(obj:43)
t_x_28                                              1 	(obj:8)
t_x_29                                              1 	(obj:25)
t_x_31                                              1 	(obj:62)
t_x_33                                              1 	(obj:5)
t_x_37                                              1 	(obj:5)
t_x_38                                              1 	(obj:6)
t_x_39                                              1 	(obj:61)
t_x_41                                              1 	(obj:30)
t_x_42                                              1 	(obj:22)
t_x_43                                              1 	(obj:2)
t_x_44                                              1 	(obj:6)
t_x_47                                              1 	(obj:53)
t_x_49                                              1 	(obj:67)
t_x_52                                              1 	(obj:7)
t_x_54                                              1 	(obj:75)
t_x_57                                              1 	(obj:2)
t_x_58                                              1 	(obj:19)
t_x_60                                              1 	(obj:43)
t_x_63                                              1 	(obj:25)
t_x_68                                              1 	(obj:29)
t_x_70                                              1 	(obj:9)
t_x_73                                              1 	(obj:32)
t_x_75                                              1 	(obj:2)
t_x_78                                              1 	(obj:21)
t_x_84                                              1 	(obj:4)
t_x_85                                              1 	(obj:16)
t_x_90                                              1 	(obj:3)
t_x_92                                              1 	(obj:33)
t_x_95                                              1 	(obj:47)
t_x_96                                              1 	(obj:27)
t_x_97                                              1 	(obj:75)
t_x_99                                              1 	(obj:22)
t_x_100                                             1 	(obj:4)
t_x_105                                             1 	(obj:3)
t_x_107                                             1 	(obj:24)
t_x_111                                             1 	(obj:12)
t_x_114                                             1 	(obj:20)
t_x_119                                             1 	(obj:1)
t_x_121                                             1 	(obj:25)
t_x_123                                             1 	(obj:44)
t_x_126                                             1 	(obj:40)
t_x_127                                             1 	(obj:5)
t_x_131                                             1 	(obj:10)
t_x_138                                             1 	(obj:30)
t_x_139                                             1 	(obj:2)
t_x_143                                             1 	(obj:31)
t_x_147                                             1 	(obj:16)
t_x_152                                             1 	(obj:15)
t_x_154                                             1 	(obj:14)
t_x_155                                             1 	(obj:43)
t_x_160                                             1 	(obj:26)
t_x_161                                             1 	(obj:10)
t_x_165                                             1 	(obj:31)
t_x_176                                             1 	(obj:10)
t_x_178                                             1 	(obj:10)
t_x_179                                             1 	(obj:16)
t_x_181                                             1 	(obj:6)
t_x_183                                             1 	(obj:30)
t_x_184                                             1 	(obj:16)
t_x_187                                             1 	(obj:14)
t_x_188                                             1 	(obj:16)
t_x_190                                             1 	(obj:5)
t_x_193                                             1 	(obj:41)
t_x_205                                             1 	(obj:28)
t_x_207                                             1 	(obj:41)
t_x_214                                             1 	(obj:6)
t_x_221                                             1 	(obj:6)
t_x_222                                             1 	(obj:34)
t_x_223                                             1 	(obj:19)
t_x_228                                             1 	(obj:27)
t_x_230                                             1 	(obj:36)
t_x_231                                             1 	(obj:52)
t_x_232                                             1 	(obj:15)
t_x_242                                             1 	(obj:16)
t_x_243                                             1 	(obj:25)
t_x_251                                             1 	(obj:7)
t_x_255                                             1 	(obj:8)
t_x_260                                             1 	(obj:1)
t_x_270                                             1 	(obj:4)
t_x_274                                             1 	(obj:18)
t_x_280                                             1 	(obj:13)
t_x_285                                             1 	(obj:3)
t_x_287                                             1 	(obj:38)
t_x_290                                             1 	(obj:16)
t_x_291                                             1 	(obj:9)
t_x_296                                             1 	(obj:15)
t_x_297                                             1 	(obj:24)
t_x_305                                             1 	(obj:11)
t_x_307                                             1 	(obj:43)
t_x_308                                             1 	(obj:10)
t_x_309                                             1 	(obj:28)
t_x_315                                             1 	(obj:29)
t_x_318                                             1 	(obj:2)
t_x_321                                             1 	(obj:0)
t_x_323                                             1 	(obj:13)
t_x_325                                             1 	(obj:39)
t_x_333                                             1 	(obj:9)
t_x_337                                             1 	(obj:7)
t_x_339                                             1 	(obj:49)
t_x_344                                             1 	(obj:38)
t_x_349                                             1 	(obj:10)
t_x_350                                             1 	(obj:19)
t_x_354                                             1 	(obj:0)
t_x_357                                             1 	(obj:37)
t_x_359                                             1 	(obj:38)
t_x_362                                             1 	(obj:31)
t_x_367                                             1 	(obj:0)
t_x_368                                             1 	(obj:1)
t_x_370                                             1 	(obj:4)
t_x_371                                             1 	(obj:28)
t_x_372                                             1 	(obj:17)
t_x_374                                             1 	(obj:14)
t_x_376                                             1 	(obj:36)
t_x_380                                             1 	(obj:21)
t_x_381                                             1 	(obj:33)
t_x_385                                             1 	(obj:10)
t_x_388                                             1 	(obj:22)
t_x_390                                             1 	(obj:7)
t_x_394                                             1 	(obj:13)
t_x_396                                             1 	(obj:24)
t_x_397                                             1 	(obj:50)
t_x_398                                             1 	(obj:25)
t_x_406                                             1 	(obj:21)
t_x_407                                             1 	(obj:7)
t_x_409                                             1 	(obj:5)
t_x_412                                             1 	(obj:11)
t_x_415                                             1 	(obj:37)
t_x_421                                             1 	(obj:13)
t_x_429                                             1 	(obj:10)
t_x_433                                             1 	(obj:7)
t_x_434                                             1 	(obj:18)
t_x_435                                             1 	(obj:44)
t_x_441                                             1 	(obj:53)
t_x_446                                             1 	(obj:11)
t_x_447                                             1 	(obj:22)
t_x_451                                             1 	(obj:6)
t_x_461                                             1 	(obj:22)
t_x_463                                             1 	(obj:15)
t_x_467                                             1 	(obj:47)
t_x_476                                             1 	(obj:8)
t_x_480                                             1 	(obj:16)
t_x_481                                             1 	(obj:2)
t_x_495                                             1 	(obj:3)
t_x_496                                             1 	(obj:14)
t_x_497                                             1 	(obj:37)
t_x_498                                             1 	(obj:20)
t_x_500                                             1 	(obj:4)
t_x_502                                             1 	(obj:17)
t_x_504                                             1 	(obj:11)
t_x_506                                             1 	(obj:28)
t_x_514                                             1 	(obj:27)
t_x_517                                             1 	(obj:16)
t_x_520                                             1 	(obj:13)
t_x_521                                             1 	(obj:19)
t_x_522                                             1 	(obj:4)
t_x_524                                             1 	(obj:11)
t_x_525                                             1 	(obj:19)
t_x_526                                             1 	(obj:10)
t_x_527                                             1 	(obj:39)
t_x_530                                             1 	(obj:17)
t_x_531                                             1 	(obj:2)
t_x_532                                             1 	(obj:33)
t_x_536                                             1 	(obj:15)
t_x_539                                             1 	(obj:1)
t_x_540                                             1 	(obj:68)
t_x_546                                             1 	(obj:13)
t_x_547                                             1 	(obj:10)
t_x_548                                             1 	(obj:37)
t_x_552                                             1 	(obj:6)
t_x_553                                             1 	(obj:26)
t_x_554                                             1 	(obj:14)
t_x_563                                             1 	(obj:2)
t_x_567                                             1 	(obj:1)
t_x_572                                             1 	(obj:28)
t_x_573                                             1 	(obj:28)
t_x_575                                             1 	(obj:8)
t_x_581                                             1 	(obj:53)
t_x_582                                             1 	(obj:26)
t_x_583                                             1 	(obj:12)
t_x_584                                             1 	(obj:33)
t_x_585                                             1 	(obj:41)
t_x_589                                             1 	(obj:33)
t_x_596                                             1 	(obj:47)
t_x_597                                             1 	(obj:27)
t_x_599                                             1 	(obj:5)
t_x_605                                             1 	(obj:47)
t_x_611                                             1 	(obj:20)
t_x_613                                             1 	(obj:16)
t_x_615                                             1 	(obj:14)
t_x_625                                             1 	(obj:55)
t_x_628                                             1 	(obj:6)
t_x_631                                             1 	(obj:20)
t_x_632                                             1 	(obj:9)
t_x_636                                             1 	(obj:23)
t_x_638                                             1 	(obj:19)
t_x_640                                             1 	(obj:27)
t_x_642                                             1 	(obj:9)
t_x_643                                             1 	(obj:18)
t_x_644                                             1 	(obj:35)
t_x_647                                             1 	(obj:67)
t_x_649                                             1 	(obj:25)
t_x_652                                             1 	(obj:6)
t_x_653                                             1 	(obj:5)
t_x_655                                             1 	(obj:28)
t_x_659                                             1 	(obj:20)
t_x_663                                             1 	(obj:0)
t_x_665                                             1 	(obj:14)
t_x_671                                             1 	(obj:30)
t_x_673                                             1 	(obj:40)
t_x_674                                             1 	(obj:32)
t_x_675                                             1 	(obj:13)
t_x_680                                             1 	(obj:3)
t_x_684                                             1 	(obj:8)
t_x_688                                             1 	(obj:21)
t_x_698                                             1 	(obj:21)
t_x_699                                             1 	(obj:15)
t_x_700                                             1 	(obj:31)
t_x_703                                             1 	(obj:0)
t_x_705                                             1 	(obj:0)
t_x_708                                             1 	(obj:8)
t_x_709                                             1 	(obj:48)
t_x_710                                             1 	(obj:32)
t_x_718                                             1 	(obj:8)
t_x_720                                             1 	(obj:5)
t_x_721                                             1 	(obj:32)
t_x_722                                             1 	(obj:72)
t_x_725                                             1 	(obj:18)
t_x_726                                             1 	(obj:11)
t_x_731                                             1 	(obj:20)
t_x_739                                             1 	(obj:18)
t_x_751                                             1 	(obj:49)
t_x_757                                             1 	(obj:21)
t_x_758                                             1 	(obj:50)
t_x_759                                             1 	(obj:3)
t_x_760                                             1 	(obj:28)
t_x_765                                             1 	(obj:29)
t_x_766                                             1 	(obj:67)
t_x_770                                             1 	(obj:66)
t_x_772                                             1 	(obj:13)
t_x_774                                             1 	(obj:2)
t_x_775                                             1 	(obj:36)
t_x_776                                             1 	(obj:19)
t_x_781                                             1 	(obj:20)
t_x_789                                             1 	(obj:34)
t_x_794                                             1 	(obj:28)
t_x_797                                             1 	(obj:1)
t_x_800                                             1 	(obj:22)
t_x_804                                             1 	(obj:42)
t_x_809                                             1 	(obj:23)
t_x_811                                             1 	(obj:28)
t_x_814                                             1 	(obj:31)
t_x_821                                             1 	(obj:10)
t_x_822                                             1 	(obj:0)
t_x_825                                             1 	(obj:36)
t_x_828                                             1 	(obj:22)
t_x_833                                             1 	(obj:47)
t_x_839                                             1 	(obj:4)
t_x_842                                             1 	(obj:18)
t_x_852                                             1 	(obj:36)
t_x_859                                             1 	(obj:14)
t_x_862                                             1 	(obj:35)
t_x_865                                             1 	(obj:18)
t_x_871                                             1 	(obj:41)
t_x_872                                             1 	(obj:19)
t_x_876                                             1 	(obj:33)
t_x_878                                             1 	(obj:7)
t_x_880                                             1 	(obj:16)
t_x_881                                             1 	(obj:20)
t_x_882                                             1 	(obj:4)
t_x_901                                             1 	(obj:46)
t_x_904                                             1 	(obj:0)
t_x_905                                             1 	(obj:15)
t_x_906                                             1 	(obj:4)
t_x_925                                             1 	(obj:8)
t_x_927                                             1 	(obj:3)
t_x_928                                             1 	(obj:12)
t_x_934                                             1 	(obj:20)
t_x_941                                             1 	(obj:4)
t_x_946                                             1 	(obj:22)
t_x_947                                             1 	(obj:28)
t_x_951                                             1 	(obj:13)
t_x_954                                             1 	(obj:11)
t_x_961                                             1 	(obj:22)
t_x_965                                             1 	(obj:6)
t_x_966                                             1 	(obj:18)
t_x_968                                             1 	(obj:14)
t_x_971                                             1 	(obj:1)
t_x_975                                             1 	(obj:28)
t_x_978                                             1 	(obj:40)
t_x_979                                             1 	(obj:35)
t_x_982                                             1 	(obj:26)
t_x_984                                             1 	(obj:24)
t_x_987                                             1 	(obj:2)
t_x_993                                             1 	(obj:26)
t_x_1000                                            1 	(obj:29)
t_x_1006                                            1 	(obj:4)
t_x_1008                                            1 	(obj:33)
t_x_1010                                            1 	(obj:27)
t_x_1012                                            1 	(obj:16)
t_x_1019                                            1 	(obj:4)
t_x_1021                                            1 	(obj:12)
t_x_1022                                            1 	(obj:5)
t_x_1026                                            1 	(obj:29)
t_x_1027                                            1 	(obj:15)
t_x_1032                                            1 	(obj:25)
t_x_1034                                            1 	(obj:21)
t_x_1035                                            1 	(obj:31)
t_x_1037                                            1 	(obj:9)
t_x_1042                                            1 	(obj:11)
t_x_1043                                            1 	(obj:2)
t_x_1047                                            1 	(obj:33)
t_x_1051                                            1 	(obj:29)
t_x_1053                                            1 	(obj:24)
t_x_1054                                            1 	(obj:26)
t_x_1056                                            1 	(obj:3)
t_x_1058                                            1 	(obj:29)
t_x_1059                                            1 	(obj:12)
t_x_1060                                            1 	(obj:29)
t_x_1062                                            1 	(obj:6)
t_x_1069                                            1 	(obj:15)
t_x_1074                                            1 	(obj:23)
t_x_1076                                            1 	(obj:5)
t_x_1077                                            1 	(obj:5)
t_x_1079                                            1 	(obj:15)
t_x_1080                                            1 	(obj:3)
t_x_1081                                            1 	(obj:8)
t_x_1082                                            1 	(obj:6)
t_x_1094                                            1 	(obj:24)
t_x_1095                                            1 	(obj:11)
t_x_1099                                            1 	(obj:28)
t_x_1100                                            1 	(obj:39)
t_x_1101                                            1 	(obj:13)
t_x_1104                                            1 	(obj:26)
t_x_1106                                            1 	(obj:0)
t_x_1109                                            1 	(obj:15)
t_x_1114                                            1 	(obj:13)
t_x_1117                                            1 	(obj:12)
t_x_1120                                            1 	(obj:27)
t_x_1124                                            1 	(obj:25)
t_x_1125                                            1 	(obj:55)
t_x_1127                                            1 	(obj:28)
t_x_1132                                            1 	(obj:14)
t_x_1143                                            1 	(obj:7)
t_x_1148                                            1 	(obj:34)
t_x_1151                                            1 	(obj:24)
t_x_1154                                            1 	(obj:42)
t_x_1161                                            1 	(obj:9)
t_x_1162                                            1 	(obj:21)
t_x_1168                                            1 	(obj:5)
t_x_1172                                            1 	(obj:13)
t_x_1176                                            1 	(obj:16)
t_x_1178                                            1 	(obj:27)
t_x_1181                                            1 	(obj:46)
t_x_1184                                            1 	(obj:0)
t_x_1185                                            1 	(obj:28)
t_x_1186                                            1 	(obj:12)
t_x_1189                                            1 	(obj:2)
t_x_1190                                            1 	(obj:39)
t_x_1191                                            1 	(obj:6)
t_x_1193                                            1 	(obj:56)
t_x_1198                                            1 	(obj:13)
t_x_1199                                            1 	(obj:38)
t_x_1201                                            1 	(obj:15)
t_x_1203                                            1 	(obj:7)
t_x_1209                                            1 	(obj:42)
t_x_1211                                            1 	(obj:1)
t_x_1212                                            1 	(obj:72)
t_x_1214                                            1 	(obj:1)
t_x_1225                                            1 	(obj:4)
t_x_1232                                            1 	(obj:2)
t_x_1236                                            1 	(obj:47)
t_x_1238                                            1 	(obj:8)
t_x_1239                                            1 	(obj:47)
t_x_1240                                            1 	(obj:5)
t_x_1242                                            1 	(obj:10)
t_x_1246                                            1 	(obj:0)
t_x_1251                                            1 	(obj:4)
t_x_1252                                            1 	(obj:26)
t_x_1253                                            1 	(obj:16)
t_x_1256                                            1 	(obj:50)
t_x_1257                                            1 	(obj:13)
t_x_1258                                            1 	(obj:31)
t_x_1260                                            1 	(obj:3)
t_x_1268                                            1 	(obj:30)
t_x_1272                                            1 	(obj:8)
t_x_1273                                            1 	(obj:20)
t_x_1275                                            1 	(obj:22)
t_x_1276                                            1 	(obj:5)
t_x_1291                                            1 	(obj:23)
t_x_1292                                            1 	(obj:21)
t_x_1293                                            1 	(obj:18)
t_x_1294                                            1 	(obj:32)
t_x_1296                                            1 	(obj:6)
t_x_1298                                            1 	(obj:17)
t_x_1301                                            1 	(obj:24)
t_x_1304                                            1 	(obj:22)
t_x_1305                                            1 	(obj:26)
t_x_1312                                            1 	(obj:16)
t_x_1318                                            1 	(obj:16)
t_x_1325                                            1 	(obj:49)
t_x_1330                                            1 	(obj:23)
t_x_1335                                            1 	(obj:8)
t_x_1338                                            1 	(obj:49)
t_x_1341                                            1 	(obj:0)
t_x_1343                                            1 	(obj:26)
t_x_1344                                            1 	(obj:14)
t_x_1349                                            1 	(obj:17)
t_x_1356                                            1 	(obj:3)
t_x_1359                                            1 	(obj:48)
t_x_1362                                            1 	(obj:20)
t_x_1365                                            1 	(obj:40)
t_x_1367                                            1 	(obj:2)
t_x_1370                                            1 	(obj:16)
t_x_1371                                            1 	(obj:10)
t_x_1372                                            1 	(obj:26)
t_x_1375                                            1 	(obj:0)
t_x_1378                                            1 	(obj:66)
t_x_1380                                            1 	(obj:7)
t_x_1382                                            1 	(obj:15)
t_x_1385                                            1 	(obj:25)
t_x_1386                                            1 	(obj:47)
t_x_1387                                            1 	(obj:31)
t_x_1388                                            1 	(obj:5)
t_x_1389                                            1 	(obj:14)
t_x_1390                                            1 	(obj:6)
t_x_1394                                            1 	(obj:41)
t_x_1398                                            1 	(obj:1)
t_x_1399                                            1 	(obj:13)
t_x_1404                                            1 	(obj:25)
t_x_1408                                            1 	(obj:44)
t_x_1410                                            1 	(obj:0)
t_x_1413                                            1 	(obj:53)
t_x_1414                                            1 	(obj:5)
t_x_1415                                            1 	(obj:4)
t_x_1418                                            1 	(obj:50)
t_x_1422                                            1 	(obj:7)
t_x_1424                                            1 	(obj:30)
t_x_1432                                            1 	(obj:23)
t_x_1445                                            1 	(obj:0)
t_x_1448                                            1 	(obj:6)
t_x_1451                                            1 	(obj:42)
t_x_1452                                            1 	(obj:21)
t_x_1455                                            1 	(obj:1)
t_x_1456                                            1 	(obj:17)
t_x_1458                                            1 	(obj:12)
t_x_1467                                            1 	(obj:0)
t_x_1471                                            1 	(obj:9)
t_x_1476                                            1 	(obj:27)
t_x_1480                                            1 	(obj:45)
t_x_1481                                            1 	(obj:28)
t_x_1490                                            1 	(obj:18)
t_x_1492                                            1 	(obj:9)
t_x_1493                                            1 	(obj:12)
t_x_1496                                            1 	(obj:28)
t_x_1504                                            1 	(obj:51)
t_x_1505                                            1 	(obj:3)
t_x_1507                                            1 	(obj:7)
t_x_1508                                            1 	(obj:29)
t_x_1509                                            1 	(obj:44)
t_x_1513                                            1 	(obj:13)
t_x_1514                                            1 	(obj:13)
t_x_1515                                            1 	(obj:43)
t_x_1516                                            1 	(obj:18)
t_x_1517                                            1 	(obj:17)
t_x_1524                                            1 	(obj:16)
t_x_1529                                            1 	(obj:27)
t_x_1533                                            1 	(obj:20)
t_x_1536                                            1 	(obj:39)
t_x_1539                                            1 	(obj:34)
t_x_1540                                            1 	(obj:5)
t_x_1541                                            1 	(obj:11)
t_x_1545                                            1 	(obj:42)
t_x_1548                                            1 	(obj:7)
t_x_1557                                            1 	(obj:25)
t_x_1558                                            1 	(obj:48)
t_x_1559                                            1 	(obj:29)
t_x_1564                                            1 	(obj:7)
t_x_1565                                            1 	(obj:25)
t_x_1566                                            1 	(obj:1)
t_x_1567                                            1 	(obj:16)
t_x_1569                                            1 	(obj:0)
t_x_1578                                            1 	(obj:7)
t_x_1580                                            1 	(obj:14)
t_x_1583                                            1 	(obj:29)
t_x_1585                                            1 	(obj:23)
t_x_1593                                            1 	(obj:25)
t_x_1596                                            1 	(obj:14)
t_x_1597                                            1 	(obj:25)
t_x_1598                                            1 	(obj:22)
t_x_1599                                            1 	(obj:20)
t_x_1602                                            1 	(obj:1)
t_x_1604                                            1 	(obj:34)
t_x_1607                                            1 	(obj:20)
t_x_1611                                            1 	(obj:9)
t_x_1614                                            1 	(obj:10)
t_x_1620                                            1 	(obj:19)
t_x_1623                                            1 	(obj:0)
t_x_1626                                            1 	(obj:8)
t_x_1628                                            1 	(obj:51)
t_x_1630                                            1 	(obj:7)
t_x_1636                                            1 	(obj:2)
t_x_1638                                            1 	(obj:27)
t_x_1640                                            1 	(obj:11)
t_x_1643                                            1 	(obj:24)
t_x_1646                                            1 	(obj:19)
t_x_1649                                            1 	(obj:23)
t_x_1654                                            1 	(obj:12)
t_x_1658                                            1 	(obj:9)
t_x_1659                                            1 	(obj:2)
t_x_1660                                            1 	(obj:14)
t_x_1661                                            1 	(obj:6)
t_x_1664                                            1 	(obj:23)
t_x_1671                                            1 	(obj:73)
t_x_1677                                            1 	(obj:0)
t_x_1679                                            1 	(obj:9)
t_x_1687                                            1 	(obj:6)
t_x_1689                                            1 	(obj:3)
t_x_1690                                            1 	(obj:20)
t_x_1693                                            1 	(obj:54)
t_x_1694                                            1 	(obj:26)
t_x_1695                                            1 	(obj:86)
t_x_1701                                            1 	(obj:43)
t_x_1703                                            1 	(obj:49)
t_x_1705                                            1 	(obj:15)
t_x_1707                                            1 	(obj:22)
t_x_1714                                            1 	(obj:37)
t_x_1716                                            1 	(obj:23)
t_x_1717                                            1 	(obj:54)
t_x_1725                                            1 	(obj:6)
t_x_1726                                            1 	(obj:2)
t_x_1729                                            1 	(obj:20)
t_x_1730                                            1 	(obj:5)
t_x_1732                                            1 	(obj:6)
t_x_1736                                            1 	(obj:8)
t_x_1743                                            1 	(obj:16)
t_x_1744                                            1 	(obj:4)
t_x_1745                                            1 	(obj:27)
t_x_1753                                            1 	(obj:39)
t_x_1756                                            1 	(obj:35)
t_x_1757                                            1 	(obj:14)
t_x_1762                                            1 	(obj:22)
t_x_1765                                            1 	(obj:32)
t_x_1766                                            1 	(obj:17)
t_x_1772                                            1 	(obj:18)
t_x_1776                                            1 	(obj:28)
t_x_1778                                            1 	(obj:51)
t_x_1788                                            1 	(obj:30)
t_x_1793                                            1 	(obj:27)
t_x_1794                                            1 	(obj:37)
t_x_1797                                            1 	(obj:0)
t_x_1798                                            1 	(obj:52)
t_x_1803                                            1 	(obj:12)
t_x_1804                                            1 	(obj:17)
t_x_1805                                            1 	(obj:19)
t_x_1809                                            1 	(obj:5)
t_x_1811                                            1 	(obj:4)
t_x_1812                                            1 	(obj:13)
t_x_1816                                            1 	(obj:15)
t_x_1823                                            1 	(obj:6)
t_x_1824                                            1 	(obj:40)
t_x_1826                                            1 	(obj:24)
t_x_1827                                            1 	(obj:33)
t_x_1828                                            1 	(obj:17)
t_x_1829                                            1 	(obj:24)
t_x_1830                                            1 	(obj:22)
t_x_1831                                            1 	(obj:0)
t_x_1844                                            1 	(obj:0)
t_x_1846                                            1 	(obj:10)
t_x_1848                                            1 	(obj:54)
t_x_1860                                            1 	(obj:8)
t_x_1861                                            1 	(obj:29)
t_x_1862                                            1 	(obj:12)
t_x_1864                                            1 	(obj:27)
t_x_1866                                            1 	(obj:24)
t_x_1870                                            1 	(obj:15)
t_x_1872                                            1 	(obj:35)
t_x_1874                                            1 	(obj:32)
t_x_1889                                            1 	(obj:72)
t_x_1890                                            1 	(obj:29)
t_x_1893                                            1 	(obj:15)
t_x_1895                                            1 	(obj:15)
t_x_1897                                            1 	(obj:18)
t_x_1898                                            1 	(obj:2)
t_x_1900                                            1 	(obj:14)
t_x_1903                                            1 	(obj:0)
t_x_1906                                            1 	(obj:11)
t_x_1912                                            1 	(obj:26)
t_x_1914                                            1 	(obj:23)
t_x_1918                                            1 	(obj:2)
t_x_1921                                            1 	(obj:35)
t_x_1926                                            1 	(obj:57)
t_x_1927                                            1 	(obj:24)
t_x_1928                                            1 	(obj:12)
t_x_1930                                            1 	(obj:21)
t_x_1931                                            1 	(obj:5)
t_x_1935                                            1 	(obj:37)
t_x_1936                                            1 	(obj:3)
t_x_1940                                            1 	(obj:8)
t_x_1943                                            1 	(obj:14)
t_x_1945                                            1 	(obj:3)
t_x_1946                                            1 	(obj:14)
t_x_1950                                            1 	(obj:31)
t_x_1952                                            1 	(obj:6)
t_x_1956                                            1 	(obj:6)
t_x_1957                                            1 	(obj:21)
t_x_1962                                            1 	(obj:16)
t_x_1964                                            1 	(obj:4)
t_x_1971                                            1 	(obj:22)
t_x_1977                                            1 	(obj:24)
t_x_1981                                            1 	(obj:6)
t_x_1985                                            1 	(obj:7)
t_x_1993                                            1 	(obj:52)
t_x_1995                                            1 	(obj:39)
t_x_1997                                            1 	(obj:0)
t_x_1998                                            1 	(obj:14)
